
--- Job bchfcnet.gms Start 02/09/22 15:11:48 34.3.0 rac355f3 WEX-WEI x86 64bit/MS Windows
--- Applying:
    C:\GAMS\34\gmsprmNT.txt
--- GAMS Parameters defined
    Input C:\Users\dekhi\Desktop\gamsworld\FCNetLib\test\bchfcnet.gms
    PageSize 0
    ScrDir C:\Users\dekhi\Desktop\gamsworld\FCNetLib\test\225a\
    SysDir C:\GAMS\34\
    LogOption 3
    ErrMsg 1
    ErrorLog 99
    IDE 1
    ResLim 3600
    LstTitleLeftAligned 1
Licensee: Eval License                                   S211214|0002AW-GEN
          Ostfalia Hochschule fuer angewandte Wissenschaften        DCE1645
          C:\Users\dekhi\Documents\GAMS\gamslice.txt
          License Admin: Mohamed Ali Dekhil, dekhil.medali@gmail.com       
          Evaluation license: Not for commercial or production use
GAMS 34.3.0   Copyright (C) 1987-2021 GAMS Development. All rights reserved
--- Starting compilation
--- bchfcnet.gms(34) 2 Mb
--- . decl.gms(15) 2 Mb
--- bchfcnet.gms(38) 2 Mb
--- . sp100x200.inc(447) 3 Mb
--- bchfcnet.gms(67) 3 Mb
--- . equs.gms(20) 3 Mb
--- bchfcnet.gms(97) 3 Mb
--- call rm -f bchout_i.gdx startcut.txt startheur.txt cuthist.gdx agap.txt rgap.txt cntfail.txt
--- bchfcnet.gms(118) 3 Mb
--- Starting execution: elapsed 0:00:00.168
--- bchfcnet.gms(505) 4 Mb
--- GDX File (execute_unload) C:\Users\dekhi\Desktop\gamsworld\FCNetLib\test\net.gdx
--- bchfcnet.gms(596) 4 Mb
--- GDXin=C:\Users\dekhi\Desktop\gamsworld\FCNetLib\test\points\sp100x200.gdx
--- GDX File (execute_load) C:\Users\dekhi\Desktop\gamsworld\FCNetLib\test\points\sp100x200.gdx
--- Generating MIP model master
--- bchfcnet.gms(600) 4 Mb
---   301 rows  401 columns  1,201 non-zeroes
---   200 discrete-columns
--- Executing CPLEX (Solvelink=2): elapsed 0:00:00.184

IBM ILOG CPLEX   34.3.0 rac355f3 Released Feb 25, 2021 WEI x86 64bit/MS Window

--- GAMS/Cplex Link licensed for continuous and discrete problems.

Reading parameter(s) from "C:\Users\dekhi\Desktop\gamsworld\FCNetLib\test\cplex.op2"
>>  mipstart 1
Finished reading from "C:\Users\dekhi\Desktop\gamsworld\FCNetLib\test\cplex.op2"

--- Space for names approximately 0.01 Mb
--- Use option 'names no' to turn use of names off
--- GMO memory 0.58 Mb (peak 0.58 Mb)
--- Dictionary memory 0.00 Mb
--- Cplex 20.1.0.0 link memory 0.01 Mb (peak 0.04 Mb)
--- Starting Cplex

Version identifier: 20.1.0.0 | 2020-11-10 | 9bedb6d68
CPXPARAM_Threads                                 1
CPXPARAM_MIP_Display                             4
CPXPARAM_TimeLimit                               3600
CPXPARAM_MIP_Tolerances_AbsMIPGap                0
CPXPARAM_MIP_Tolerances_MIPGap                   0
Generic callback                                 0x50
Processing 1 MIP starts.
MIP start 'm1' defined solution with objective 34507.0000.
1 of 1 MIP starts provided solutions.
MIP start 'm1' defined initial solution with objective 34507.0000.
Tried aggregator 3 times.
MIP Presolve eliminated 50 rows and 15 columns.
MIP Presolve added 6 rows and 0 columns.
MIP Presolve modified 147 coefficients.
Aggregator did 62 substitutions.
Reduced MIP has 194 rows, 291 columns, and 603 nonzeros.
Reduced MIP has 153 binaries, 0 generals, 0 SOSs, and 0 indicators.
Presolve time = 0.00 sec. (1.57 ticks)
Probing time = 0.00 sec. (0.07 ticks)
Tried aggregator 1 time.
Detecting symmetries...
Reduced MIP has 194 rows, 291 columns, and 603 nonzeros.
Reduced MIP has 153 binaries, 0 generals, 0 SOSs, and 0 indicators.
Presolve time = 0.00 sec. (0.57 ticks)
Probing time = 0.00 sec. (0.06 ticks)
Clique table members: 7.
MIP emphasis: balance optimality and feasibility.
MIP search method: dynamic search.
Parallel mode: none, using 1 thread.
Tried aggregator 1 time.
LP Presolve eliminated 135 rows and 196 columns.
Aggregator did 28 substitutions.
Reduced LP has 31 rows, 67 columns, and 140 nonzeros.
Presolve time = 0.00 sec. (0.17 ticks)
Initializing dual steep norms . . .

Iteration log . . .
Iteration:     1   Dual objective     =         15109.103140
Initializing dual steep norms . . .
Root relaxation solution time = 0.00 sec. (0.33 ticks)

        Nodes                                         Cuts/
   Node  Left     Objective  IInf  Best Integer    Best Bound    ItCnt     Gap

*     0+    0                        34507.0000    12664.0000            63.30%
Found incumbent of value 34507.000000 after 0.00 sec. (3.06 ticks)
      0     0    19230.4039    26    34507.0000    19230.4039       24   44.27%
      0     0    28596.3617    17    34507.0000      Cuts: 75       68   17.13%
      0     0    32713.1631    23    34507.0000      Cuts: 56       96    5.20%
      0     0    34368.5883    13    34507.0000      Cuts: 46      117    0.40%
      0     0        cutoff          34507.0000                    122    0.00%
Elapsed time = 0.05 sec. (21.65 ticks, tree = 0.01 MB, solutions = 1)

Cover cuts applied:  20
Implied bound cuts applied:  4
Flow cuts applied:  37
Mixed integer rounding cuts applied:  27
Flow path cuts applied:  5
Multi commodity flow cuts applied:  4
Gomory fractional cuts applied:  28

Root node processing (before b&c):
  Real time             =    0.05 sec. (21.67 ticks)
Sequential b&c:
  Real time             =    0.00 sec. (0.00 ticks)
                          ------------
Total (root+branch&cut) =    0.05 sec. (21.67 ticks)

--- MIP status (101): integer optimal solution.
--- Cplex Time: 0.05sec (det. 21.67 ticks)

--- Fixing integer variables and solving final LP...

Version identifier: 20.1.0.0 | 2020-11-10 | 9bedb6d68
CPXPARAM_Advance                                 2
CPXPARAM_Threads                                 1
CPXPARAM_MIP_Display                             4
CPXPARAM_TimeLimit                               3600
CPXPARAM_MIP_Tolerances_AbsMIPGap                0
CPXPARAM_MIP_Tolerances_MIPGap                   0
Tried aggregator 1 time.
LP Presolve eliminated 300 rows and 401 columns.
All rows and columns eliminated.
Presolve time = 0.00 sec. (0.15 ticks)

--- Fixed MIP status (1): optimal.
--- Cplex Time: 0.00sec (det. 0.27 ticks)


Proven optimal solution
MIP Solution:        34507.000000    (122 iterations, 0 nodes)
Final Solve:         34507.000000    (0 iterations)

Best possible:       34507.000000
Absolute gap:            0.000000
Relative gap:            0.000000

--- Reading solution for model master
*** Status: Normal completion
--- Job bchfcnet.gms Stop 02/09/22 15:11:48 elapsed 0:00:00.279
